NEB image 024
1.0
   20.0000000000000000     0.0000000000000000     0.0000000000000000
    0.0000000000000000    20.0000000000000000     0.0000000000000000
    0.0000000000000000     0.0000000000000000    20.0000000000000000
Si
3
Selective Dynamics
Cartesian
   10.0000000000000000    10.0000000000000000    10.0000000000000000  F F F
   12.3525500000000008    10.0000000000000000    10.0000000000000000  F F F
    8.5710402496787026    11.8789704730547996    10.0000000000000000  T T T
