NEB image 025
1.0
   20.0000000000000000     0.0000000000000000     0.0000000000000000
    0.0000000000000000    20.0000000000000000     0.0000000000000000
    0.0000000000000000     0.0000000000000000    20.0000000000000000
Si
3
Selective Dynamics
Cartesian
   10.0000000000000000    10.0000000000000000    10.0000000000000000  F F F
   12.3525500000000008    10.0000000000000000    10.0000000000000000  F F F
    8.5000743919692372    11.8269055366339462    10.0000000000000000  T T T
