NEB image 001
1.0
   20.0000000000000000     0.0000000000000000     0.0000000000000000
    0.0000000000000000    20.0000000000000000     0.0000000000000000
    0.0000000000000000     0.0000000000000000    20.0000000000000000
Si
3
Selective Dynamics
Cartesian
   10.0000000000000000    10.0000000000000000    10.0000000000000000  F F F
   12.3525500000000008    10.0000000000000000    10.0000000000000000  F F F
   10.5458276405545970    12.3494969146770170    10.0000000000000000  T T T
