NEB image 005
1.0
   20.0000000000000000     0.0000000000000000     0.0000000000000000
    0.0000000000000000    20.0000000000000000     0.0000000000000000
    0.0000000000000000     0.0000000000000000    20.0000000000000000
Si
3
Selective Dynamics
Cartesian
   10.0000000000000000    10.0000000000000000    10.0000000000000000  F F F
   12.3525500000000008    10.0000000000000000    10.0000000000000000  F F F
   10.1747893003937673    12.3378442512674056    10.0000000000000000  T T T
