Si asymmetric channel test - final
1.0
   24.0000000000000000   0.0000000000000000   0.0000000000000000
    0.0000000000000000  24.0000000000000000   0.0000000000000000
    0.0000000000000000   0.0000000000000000  24.0000000000000000
Si
4
Selective Dynamics
Cartesian
    9.0000000000000000  12.0500000000000000  12.0000000000000000  F F F
   10.2000000000000000   7.9500000000000000  12.0000000000000000  F F F
   11.5000000000000000  11.9475000000000000  12.0000000000000000  F F F
   11.9192142400000000   9.6009921800000000  12.0000000000000000  T T F
