Si three-body angle test - final 140 deg
1.0
   20.0000000000000000   0.0000000000000000   0.0000000000000000
    0.0000000000000000  20.0000000000000000   0.0000000000000000
    0.0000000000000000   0.0000000000000000  20.0000000000000000
Si
3
Selective Dynamics
Cartesian
   10.0000000000000000  10.0000000000000000  10.0000000000000000  F F F
   12.3525500000000000  10.0000000000000000  10.0000000000000000  F F F
    8.1978421453404500  11.5121899911681000  10.0000000000000000  T T T
