Si vacancy hop Version A - final frozen lattice
1.0
   16.2929999999999993     0.0000000000000000     0.0000000000000000
    0.0000000000000000    16.2929999999999993     0.0000000000000000
    0.0000000000000000     0.0000000000000000    16.2929999999999993
Si
215
Selective Dynamics
Cartesian
    0.0000000000000000     0.0000000000000000     0.0000000000000000  F F F
    1.3577500000000000     1.3577500000000000     1.3577500000000000  F F F
    0.0000000000000000     2.7155000000000000     2.7155000000000000  F F F
    1.3577500000000000     4.0732499999999998     4.0732499999999998  F F F
    2.7155000000000000     0.0000000000000000     2.7155000000000000  F F F
    4.0732499999999998     1.3577500000000000     4.0732499999999998  F F F
    2.7155000000000000     2.7155000000000000     0.0000000000000000  F F F
    4.0732499999999998     4.0732499999999998     1.3577500000000000  F F F
    0.0000000000000000     0.0000000000000000     5.4310000000000000  F F F
    1.3577500000000000     1.3577500000000000     6.7887500000000003  F F F
    0.0000000000000000     2.7155000000000000     8.1464999999999996  F F F
    1.3577500000000000     4.0732499999999998     9.5042500000000008  F F F
    2.7155000000000000     0.0000000000000000     8.1464999999999996  F F F
    4.0732499999999998     1.3577500000000000     9.5042500000000008  F F F
    2.7155000000000000     2.7155000000000000     5.4310000000000000  F F F
    4.0732499999999998     4.0732499999999998     6.7887500000000003  F F F
    0.0000000000000000     0.0000000000000000    10.8620000000000001  F F F
    1.3577500000000000     1.3577500000000000    12.2197499999999994  F F F
    0.0000000000000000     2.7155000000000000    13.5775000000000006  F F F
    1.3577500000000000     4.0732499999999998    14.9352499999999999  F F F
    2.7155000000000000     0.0000000000000000    13.5775000000000006  F F F
    4.0732499999999998     1.3577500000000000    14.9352499999999999  F F F
    2.7155000000000000     2.7155000000000000    10.8620000000000001  F F F
    4.0732499999999998     4.0732499999999998    12.2197499999999994  F F F
    0.0000000000000000     5.4310000000000000     0.0000000000000000  F F F
    1.3577500000000000     6.7887500000000003     1.3577500000000000  F F F
    0.0000000000000000     8.1464999999999996     2.7155000000000000  F F F
    1.3577500000000000     9.5042500000000008     4.0732499999999998  F F F
    2.7155000000000000     5.4310000000000000     2.7155000000000000  F F F
    4.0732499999999998     6.7887500000000003     4.0732499999999998  F F F
    2.7155000000000000     8.1464999999999996     0.0000000000000000  F F F
    4.0732499999999998     9.5042500000000008     1.3577500000000000  F F F
    0.0000000000000000     5.4310000000000000     5.4310000000000000  F F F
    1.3577500000000000     6.7887500000000003     6.7887500000000003  F F F
    0.0000000000000000     8.1464999999999996     8.1464999999999996  F F F
    1.3577500000000000     9.5042500000000008     9.5042500000000008  F F F
    2.7155000000000000     5.4310000000000000     8.1464999999999996  F F F
    4.0732499999999998     6.7887500000000003     9.5042500000000008  F F F
    2.7155000000000000     8.1464999999999996     5.4310000000000000  F F F
    4.0732499999999998     9.5042500000000008     6.7887500000000003  F F F
    0.0000000000000000     5.4310000000000000    10.8620000000000001  F F F
    1.3577500000000000     6.7887500000000003    12.2197499999999994  F F F
    0.0000000000000000     8.1464999999999996    13.5775000000000006  F F F
    1.3577500000000000     9.5042500000000008    14.9352499999999999  F F F
    2.7155000000000000     5.4310000000000000    13.5775000000000006  F F F
    4.0732499999999998     6.7887500000000003    14.9352499999999999  F F F
    2.7155000000000000     8.1464999999999996    10.8620000000000001  F F F
    4.0732499999999998     9.5042500000000008    12.2197499999999994  F F F
    0.0000000000000000    10.8620000000000001     0.0000000000000000  F F F
    1.3577500000000000    12.2197499999999994     1.3577500000000000  F F F
    0.0000000000000000    13.5775000000000006     2.7155000000000000  F F F
    1.3577500000000000    14.9352499999999999     4.0732499999999998  F F F
    2.7155000000000000    10.8620000000000001     2.7155000000000000  F F F
    4.0732499999999998    12.2197499999999994     4.0732499999999998  F F F
    2.7155000000000000    13.5775000000000006     0.0000000000000000  F F F
    4.0732499999999998    14.9352499999999999     1.3577500000000000  F F F
    0.0000000000000000    10.8620000000000001     5.4310000000000000  F F F
    1.3577500000000000    12.2197499999999994     6.7887500000000003  F F F
    0.0000000000000000    13.5775000000000006     8.1464999999999996  F F F
    1.3577500000000000    14.9352499999999999     9.5042500000000008  F F F
    2.7155000000000000    10.8620000000000001     8.1464999999999996  F F F
    4.0732499999999998    12.2197499999999994     9.5042500000000008  F F F
    2.7155000000000000    13.5775000000000006     5.4310000000000000  F F F
    4.0732499999999998    14.9352499999999999     6.7887500000000003  F F F
    0.0000000000000000    10.8620000000000001    10.8620000000000001  F F F
    1.3577500000000000    12.2197499999999994    12.2197499999999994  F F F
    0.0000000000000000    13.5775000000000006    13.5775000000000006  F F F
    1.3577500000000000    14.9352499999999999    14.9352499999999999  F F F
    2.7155000000000000    10.8620000000000001    13.5775000000000006  F F F
    4.0732499999999998    12.2197499999999994    14.9352499999999999  F F F
    2.7155000000000000    13.5775000000000006    10.8620000000000001  F F F
    4.0732499999999998    14.9352499999999999    12.2197499999999994  F F F
    5.4310000000000000     0.0000000000000000     0.0000000000000000  F F F
    6.7887500000000003     1.3577500000000000     1.3577500000000000  F F F
    5.4310000000000000     2.7155000000000000     2.7155000000000000  F F F
    6.7887500000000003     4.0732499999999998     4.0732499999999998  F F F
    8.1464999999999996     0.0000000000000000     2.7155000000000000  F F F
    9.5042500000000008     1.3577500000000000     4.0732499999999998  F F F
    8.1464999999999996     2.7155000000000000     0.0000000000000000  F F F
    9.5042500000000008     4.0732499999999998     1.3577500000000000  F F F
    5.4310000000000000     0.0000000000000000     5.4310000000000000  F F F
    6.7887500000000003     1.3577500000000000     6.7887500000000003  F F F
    5.4310000000000000     2.7155000000000000     8.1464999999999996  F F F
    6.7887500000000003     4.0732499999999998     9.5042500000000008  F F F
    8.1464999999999996     0.0000000000000000     8.1464999999999996  F F F
    9.5042500000000008     1.3577500000000000     9.5042500000000008  F F F
    8.1464999999999996     2.7155000000000000     5.4310000000000000  F F F
    9.5042500000000008     4.0732499999999998     6.7887500000000003  F F F
    5.4310000000000000     0.0000000000000000    10.8620000000000001  F F F
    6.7887500000000003     1.3577500000000000    12.2197499999999994  F F F
    5.4310000000000000     2.7155000000000000    13.5775000000000006  F F F
    6.7887500000000003     4.0732499999999998    14.9352499999999999  F F F
    8.1464999999999996     0.0000000000000000    13.5775000000000006  F F F
    9.5042500000000008     1.3577500000000000    14.9352499999999999  F F F
    8.1464999999999996     2.7155000000000000    10.8620000000000001  F F F
    9.5042500000000008     4.0732499999999998    12.2197499999999994  F F F
    5.4310000000000000     5.4310000000000000     0.0000000000000000  F F F
    6.7887500000000003     6.7887500000000003     1.3577500000000000  F F F
    5.4310000000000000     8.1464999999999996     2.7155000000000000  F F F
    6.7887500000000003     9.5042500000000008     4.0732499999999998  F F F
    8.1464999999999996     5.4310000000000000     2.7155000000000000  F F F
    9.5042500000000008     6.7887500000000003     4.0732499999999998  F F F
    8.1464999999999996     8.1464999999999996     0.0000000000000000  F F F
    9.5042500000000008     9.5042500000000008     1.3577500000000000  F F F
    5.4310000000000000     8.1464999999999996     8.1464999999999996  F F F
    6.7887500000000003     9.5042500000000008     9.5042500000000008  F F F
    8.1464999999999996     5.4310000000000000     8.1464999999999996  F F F
    9.5042500000000008     6.7887500000000003     9.5042500000000008  F F F
    8.1464999999999996     8.1464999999999996     5.4310000000000000  F F F
    9.5042500000000008     9.5042500000000008     6.7887500000000003  F F F
    5.4310000000000000     5.4310000000000000    10.8620000000000001  F F F
    6.7887500000000003     6.7887500000000003    12.2197499999999994  F F F
    5.4310000000000000     8.1464999999999996    13.5775000000000006  F F F
    6.7887500000000003     9.5042500000000008    14.9352499999999999  F F F
    8.1464999999999996     5.4310000000000000    13.5775000000000006  F F F
    9.5042500000000008     6.7887500000000003    14.9352499999999999  F F F
    8.1464999999999996     8.1464999999999996    10.8620000000000001  F F F
    9.5042500000000008     9.5042500000000008    12.2197499999999994  F F F
    5.4310000000000000    10.8620000000000001     0.0000000000000000  F F F
    6.7887500000000003    12.2197499999999994     1.3577500000000000  F F F
    5.4310000000000000    13.5775000000000006     2.7155000000000000  F F F
    6.7887500000000003    14.9352499999999999     4.0732499999999998  F F F
    8.1464999999999996    10.8620000000000001     2.7155000000000000  F F F
    9.5042500000000008    12.2197499999999994     4.0732499999999998  F F F
    8.1464999999999996    13.5775000000000006     0.0000000000000000  F F F
    9.5042500000000008    14.9352499999999999     1.3577500000000000  F F F
    5.4310000000000000    10.8620000000000001     5.4310000000000000  F F F
    6.7887500000000003    12.2197499999999994     6.7887500000000003  F F F
    5.4310000000000000    13.5775000000000006     8.1464999999999996  F F F
    6.7887500000000003    14.9352499999999999     9.5042500000000008  F F F
    8.1464999999999996    10.8620000000000001     8.1464999999999996  F F F
    9.5042500000000008    12.2197499999999994     9.5042500000000008  F F F
    8.1464999999999996    13.5775000000000006     5.4310000000000000  F F F
    9.5042500000000008    14.9352499999999999     6.7887500000000003  F F F
    5.4310000000000000    10.8620000000000001    10.8620000000000001  F F F
    6.7887500000000003    12.2197499999999994    12.2197499999999994  F F F
    5.4310000000000000    13.5775000000000006    13.5775000000000006  F F F
    6.7887500000000003    14.9352499999999999    14.9352499999999999  F F F
    8.1464999999999996    10.8620000000000001    13.5775000000000006  F F F
    9.5042500000000008    12.2197499999999994    14.9352499999999999  F F F
    8.1464999999999996    13.5775000000000006    10.8620000000000001  F F F
    9.5042500000000008    14.9352499999999999    12.2197499999999994  F F F
   10.8620000000000001     0.0000000000000000     0.0000000000000000  F F F
   12.2197499999999994     1.3577500000000000     1.3577500000000000  F F F
   10.8620000000000001     2.7155000000000000     2.7155000000000000  F F F
   12.2197499999999994     4.0732499999999998     4.0732499999999998  F F F
   13.5775000000000006     0.0000000000000000     2.7155000000000000  F F F
   14.9352499999999999     1.3577500000000000     4.0732499999999998  F F F
   13.5775000000000006     2.7155000000000000     0.0000000000000000  F F F
   14.9352499999999999     4.0732499999999998     1.3577500000000000  F F F
   10.8620000000000001     0.0000000000000000     5.4310000000000000  F F F
   12.2197499999999994     1.3577500000000000     6.7887500000000003  F F F
   10.8620000000000001     2.7155000000000000     8.1464999999999996  F F F
   12.2197499999999994     4.0732499999999998     9.5042500000000008  F F F
   13.5775000000000006     0.0000000000000000     8.1464999999999996  F F F
   14.9352499999999999     1.3577500000000000     9.5042500000000008  F F F
   13.5775000000000006     2.7155000000000000     5.4310000000000000  F F F
   14.9352499999999999     4.0732499999999998     6.7887500000000003  F F F
   10.8620000000000001     0.0000000000000000    10.8620000000000001  F F F
   12.2197499999999994     1.3577500000000000    12.2197499999999994  F F F
   10.8620000000000001     2.7155000000000000    13.5775000000000006  F F F
   12.2197499999999994     4.0732499999999998    14.9352499999999999  F F F
   13.5775000000000006     0.0000000000000000    13.5775000000000006  F F F
   14.9352499999999999     1.3577500000000000    14.9352499999999999  F F F
   13.5775000000000006     2.7155000000000000    10.8620000000000001  F F F
   14.9352499999999999     4.0732499999999998    12.2197499999999994  F F F
   10.8620000000000001     5.4310000000000000     0.0000000000000000  F F F
   12.2197499999999994     6.7887500000000003     1.3577500000000000  F F F
   10.8620000000000001     8.1464999999999996     2.7155000000000000  F F F
   12.2197499999999994     9.5042500000000008     4.0732499999999998  F F F
   13.5775000000000006     5.4310000000000000     2.7155000000000000  F F F
   14.9352499999999999     6.7887500000000003     4.0732499999999998  F F F
   13.5775000000000006     8.1464999999999996     0.0000000000000000  F F F
   14.9352499999999999     9.5042500000000008     1.3577500000000000  F F F
   10.8620000000000001     5.4310000000000000     5.4310000000000000  F F F
   12.2197499999999994     6.7887500000000003     6.7887500000000003  F F F
   10.8620000000000001     8.1464999999999996     8.1464999999999996  F F F
   12.2197499999999994     9.5042500000000008     9.5042500000000008  F F F
   13.5775000000000006     5.4310000000000000     8.1464999999999996  F F F
   14.9352499999999999     6.7887500000000003     9.5042500000000008  F F F
   13.5775000000000006     8.1464999999999996     5.4310000000000000  F F F
   14.9352499999999999     9.5042500000000008     6.7887500000000003  F F F
   10.8620000000000001     5.4310000000000000    10.8620000000000001  F F F
   12.2197499999999994     6.7887500000000003    12.2197499999999994  F F F
   10.8620000000000001     8.1464999999999996    13.5775000000000006  F F F
   12.2197499999999994     9.5042500000000008    14.9352499999999999  F F F
   13.5775000000000006     5.4310000000000000    13.5775000000000006  F F F
   14.9352499999999999     6.7887500000000003    14.9352499999999999  F F F
   13.5775000000000006     8.1464999999999996    10.8620000000000001  F F F
   14.9352499999999999     9.5042500000000008    12.2197499999999994  F F F
   10.8620000000000001    10.8620000000000001     0.0000000000000000  F F F
   12.2197499999999994    12.2197499999999994     1.3577500000000000  F F F
   10.8620000000000001    13.5775000000000006     2.7155000000000000  F F F
   12.2197499999999994    14.9352499999999999     4.0732499999999998  F F F
   13.5775000000000006    10.8620000000000001     2.7155000000000000  F F F
   14.9352499999999999    12.2197499999999994     4.0732499999999998  F F F
   13.5775000000000006    13.5775000000000006     0.0000000000000000  F F F
   14.9352499999999999    14.9352499999999999     1.3577500000000000  F F F
   10.8620000000000001    10.8620000000000001     5.4310000000000000  F F F
   12.2197499999999994    12.2197499999999994     6.7887500000000003  F F F
   10.8620000000000001    13.5775000000000006     8.1464999999999996  F F F
   12.2197499999999994    14.9352499999999999     9.5042500000000008  F F F
   13.5775000000000006    10.8620000000000001     8.1464999999999996  F F F
   14.9352499999999999    12.2197499999999994     9.5042500000000008  F F F
   13.5775000000000006    13.5775000000000006     5.4310000000000000  F F F
   14.9352499999999999    14.9352499999999999     6.7887500000000003  F F F
   10.8620000000000001    10.8620000000000001    10.8620000000000001  F F F
   12.2197499999999994    12.2197499999999994    12.2197499999999994  F F F
   10.8620000000000001    13.5775000000000006    13.5775000000000006  F F F
   12.2197499999999994    14.9352499999999999    14.9352499999999999  F F F
   13.5775000000000006    10.8620000000000001    13.5775000000000006  F F F
   14.9352499999999999    12.2197499999999994    14.9352499999999999  F F F
   13.5775000000000006    13.5775000000000006    10.8620000000000001  F F F
   14.9352499999999999    14.9352499999999999    12.2197499999999994  F F F
    5.4310000000000000     5.4310000000000000     5.4310000000000000  T T T
