Si three-body angle test - initial 75 deg
1.0
   20.0000000000000000   0.0000000000000000   0.0000000000000000
    0.0000000000000000  20.0000000000000000   0.0000000000000000
    0.0000000000000000   0.0000000000000000  20.0000000000000000
Si
3
Selective Dynamics
Cartesian
   10.0000000000000000  10.0000000000000000  10.0000000000000000  F F F
   12.3525500000000000  10.0000000000000000  10.0000000000000000  F F F
   10.6088847445559000  12.2723888026363000  10.0000000000000000  T T T
