Si line toy - final
1.0
   20.000000000000000   0.0000000000000000   0.0000000000000000
    0.0000000000000000  20.000000000000000   0.0000000000000000
    0.0000000000000000   0.0000000000000000  20.000000000000000
Si
2
Selective Dynamics
Cartesian
   8.000000000000000   10.000000000000000   10.000000000000000 F F F
  12.200000000000000   10.000000000000000   10.000000000000000 T T T
