Si line toy - initial
1.0
   20.0000000000000000   0.0000000000000000   0.0000000000000000
    0.0000000000000000  20.0000000000000000   0.0000000000000000
    0.0000000000000000   0.0000000000000000  20.0000000000000000
  Si
  2
Selective Dynamics
Direct
    0.4000000000000000   0.5000000000000000   0.5000000000000000  F F F
    0.49000000000000000   0.5000000000000000   0.5000000000000000  T T T
    # 0.5178543847516806   0.5000000000000000   0.5000000000000000  T T T
